dates = {'2022-03-14','2022-03-15','2022-03-16','2022-03-17','2022-03-18','2022-03-19','2022-03-20','2022-03-21','2022-03-22','2022-03-23'};

daysOfWeek = [Monday,Tuesday,Wednesday,Thursday,Friday,Saturday,Sunday,Monday,Tuesday,Wednesday];

% For this week, how many people will be here.
numPeople = [98,98,98,89,89,89,89,89,89,89];

% Physical workers need 50 to 100 % more nutrients per day.
numPhysicalWorkers = [28.0,28.0,28.0,28.0,21.0,21.0,21.0,21.0,21.0,21.0];

% Males need +25% more nutrients per day.
numMen = [90,80,80,80,75,75,75,75,75,75];

% Num people who do not eat categories. contains = {none, meat, milk, gluten, egg, nut, seed, sugars}
numRefusals = [| 0,1,2,0,8,1,0,0 | 0,1,2,0,8,1,0,0 | 0,1,2,0,8,1,0,0 | 0,0,3,0,0,0,1,5 | 0,0,3,0,0,0,1,5 | 0,0,3,0,0,0,1,5 | 0,0,3,0,0,0,1,5 | 0,0,3,0,0,0,1,5 | 0,0,3,0,0,0,1,5 | 0,0,3,0,0,0,1,5 |];

